p cnf 37 106
a 10 19 0
e 1 2 3 4 5 6 7 8 9 11 12 13 14 15 16 17 18 20 21 22 23 24 25 26 27 28 29 30 31 32 33 34 35 36 37 0
-3 1 0
-3 -2 0
-1 2 3 0
5 3 0
5 -4 0
-3 4 -5 0
7 6 0
7 4 0
-6 -4 -7 0
-7 8 -9 0
7 -8 -9 0
-7 -8 9 0
7 8 9 0
10 -9 0
10 1 0
9 -1 -10 0
-5 10 -11 0
5 -10 -11 0
-5 -10 11 0
5 10 11 0
-13 8 0
-13 12 0
-8 -12 13 0
14 -4 0
14 4 0
-15 13 0
-15 -14 0
-13 14 15 0
-17 2 0
-17 16 0
-2 -16 17 0
17 -18 0
-17 -18 0
-6 -3 -19 0
6 3 -19 0
-6 3 19 0
6 -3 19 0
18 -19 -20 0
-18 19 -20 0
18 19 20 0
-18 -19 20 0
-15 20 -21 0
15 -20 -21 0
-15 -20 21 0
15 20 21 0
22 -11 0
22 21 0
11 -21 -22 0
12 -2 -23 0
-12 2 -23 0
12 2 23 0
-12 -2 23 0
24 -16 0
24 -8 0
16 8 -24 0
-25 -23 0
-25 24 0
23 -24 25 0
-26 2 0
-26 2 0
-2 26 0
-16 2 -27 0
16 -2 -27 0
-16 -2 27 0
16 2 27 0
28 -26 0
28 -27 0
26 27 -28 0
7 -16 -29 0
-7 16 -29 0
7 16 29 0
-7 -16 29 0
30 -2 0
30 -12 0
2 12 -30 0
-29 -30 -31 0
29 30 -31 0
-29 30 31 0
29 -30 31 0
32 28 0
32 -31 0
-28 31 -32 0
-34 -16 0
-34 -33 0
16 33 34 0
-32 -34 -35 0
32 34 -35 0
-32 34 35 0
32 -34 35 0
36 25 0
36 -35 0
-25 35 -36 0
-37 -22 0
-37 -36 0
22 36 37 0
-26 -36 -30 24 -35 -19 0
32 -9 -4 -28 -14 0
-22 28 -26 6 23 0
4 11 -25 -21 -8 23 0
-36 35 -24 7 19 32 -6 0
31 4 -25 2 -35 0
33 8 17 -14 -23 19 -25 0
-4 14 -30 -15 0
-14 -6 -27 -9 0
16 26 25 -34 -14 24 3 0
37 0
